solution status: time limit reached
objective value:                                  175
$and$benchmarks/c432.v:192$440_y                    6 	(obj:0)
$and$benchmarks/c432.v:192$440_z                  -22 	(obj:0)
$and$benchmarks/c432.v:121$304_y                    6 	(obj:0)
$and$benchmarks/c432.v:121$304_z                  -19 	(obj:0)
$and$benchmarks/c432.v:201$455_y                    2 	(obj:0)
$and$benchmarks/c432.v:201$455_z                  -24 	(obj:0)
$and$benchmarks/c432.v:122$306_y                    7 	(obj:0)
$and$benchmarks/c432.v:122$306_z                  -22 	(obj:0)
$and$benchmarks/c432.v:127$316_y                    1 	(obj:0)
$and$benchmarks/c432.v:127$316_z                  -17 	(obj:0)
$and$benchmarks/c432.v:185$413_y                    1 	(obj:0)
$and$benchmarks/c432.v:185$413_z                  -16 	(obj:0)
$not$benchmarks/c432.v:0$489_y                      8 	(obj:0)
$not$benchmarks/c432.v:0$489_z                    -20 	(obj:0)
$and$benchmarks/c432.v:201$456_y                    5 	(obj:0)
$and$benchmarks/c432.v:201$456_z                  -24 	(obj:0)
$and$benchmarks/c432.v:119$300_y                    4 	(obj:0)
$and$benchmarks/c432.v:119$300_z                  -17 	(obj:0)
$not$benchmarks/c432.v:0$491_y                      4 	(obj:0)
$not$benchmarks/c432.v:0$491_z                    -21 	(obj:0)
$xor$benchmarks/c432.v:103$270_y                    9 	(obj:0)
$xor$benchmarks/c432.v:103$270_z                  -24 	(obj:0)
$xor$benchmarks/c432.v:105$273_y                    5 	(obj:0)
$xor$benchmarks/c432.v:105$273_z                  -23 	(obj:0)
$not$benchmarks/c432.v:0$447_y                     -1 	(obj:0)
$not$benchmarks/c432.v:0$447_z                    -24 	(obj:0)
$xor$benchmarks/c432.v:97$262_y                     9 	(obj:0)
$xor$benchmarks/c432.v:97$262_z                   -25 	(obj:0)
$xor$benchmarks/c432.v:101$267_y                    8 	(obj:0)
$xor$benchmarks/c432.v:101$267_z                  -23 	(obj:0)
$and$benchmarks/c432.v:90$257_y                     6 	(obj:0)
$and$benchmarks/c432.v:90$257_z                   -20 	(obj:0)
$and$benchmarks/c432.v:128$318_y                   10 	(obj:0)
$and$benchmarks/c432.v:128$318_z                  -16 	(obj:0)
$and$benchmarks/c432.v:115$292_y                    8 	(obj:0)
$and$benchmarks/c432.v:115$292_z                  -17 	(obj:0)
$and$benchmarks/c432.v:200$452_y                    1 	(obj:0)
$and$benchmarks/c432.v:200$452_z                  -20 	(obj:0)
$and$benchmarks/c432.v:90$254_y                     8 	(obj:0)
$and$benchmarks/c432.v:90$254_z                   -21 	(obj:0)
$xor$benchmarks/c432.v:96$261_y                    10 	(obj:0)
$xor$benchmarks/c432.v:96$261_z                   -23 	(obj:0)
$and$benchmarks/c432.v:130$329_y                    7 	(obj:0)
$and$benchmarks/c432.v:130$329_z                  -19 	(obj:0)
$and$benchmarks/c432.v:126$314_y                    9 	(obj:0)
$and$benchmarks/c432.v:126$314_z                  -23 	(obj:0)
$and$benchmarks/c432.v:90$252_y                     9 	(obj:0)
$and$benchmarks/c432.v:90$252_z                   -19 	(obj:0)
$xor$benchmarks/c432.v:98$263_y                    10 	(obj:0)
$xor$benchmarks/c432.v:98$263_z                   -25 	(obj:0)
$and$benchmarks/c432.v:203$463_z                  -23 	(obj:0)
$and$benchmarks/c432.v:90$258_y                     6 	(obj:0)
$and$benchmarks/c432.v:90$258_z                   -21 	(obj:0)
$and$benchmarks/c432.v:112$286_y                    8 	(obj:0)
$and$benchmarks/c432.v:112$286_z                  -19 	(obj:0)
$and$benchmarks/c432.v:192$443_y                    5 	(obj:0)
$and$benchmarks/c432.v:192$443_z                  -18 	(obj:0)
$and$benchmarks/c432.v:188$425_y                    1 	(obj:0)
$and$benchmarks/c432.v:188$425_z                  -18 	(obj:0)
$and$benchmarks/c432.v:90$256_y                     9 	(obj:0)
$and$benchmarks/c432.v:90$256_z                   -21 	(obj:0)
$xor$benchmarks/c432.v:95$260_y                     5 	(obj:0)
$xor$benchmarks/c432.v:95$260_z                   -20 	(obj:0)
$and$benchmarks/c432.v:113$288_y                   10 	(obj:0)
$and$benchmarks/c432.v:113$288_z                  -19 	(obj:0)
$and$benchmarks/c432.v:182$403_y                    8 	(obj:0)
$and$benchmarks/c432.v:182$403_z                  -14 	(obj:0)
$and$benchmarks/c432.v:204$467_y                    1 	(obj:0)
$and$benchmarks/c432.v:204$467_z                  -24 	(obj:0)
$and$benchmarks/c432.v:199$450_z                  -22 	(obj:0)
$xor$benchmarks/c432.v:99$264_y                    10 	(obj:0)
$xor$benchmarks/c432.v:99$264_z                   -24 	(obj:0)
$and$benchmarks/c432.v:125$312_y                    7 	(obj:0)
$and$benchmarks/c432.v:125$312_z                  -23 	(obj:0)
$and$benchmarks/c432.v:114$290_y                    2 	(obj:0)
$and$benchmarks/c432.v:114$290_z                  -21 	(obj:0)
$and$benchmarks/c432.v:192$437_z                  -24 	(obj:0)
$and$benchmarks/c432.v:190$433_y                    1 	(obj:0)
$and$benchmarks/c432.v:190$433_z                  -13 	(obj:0)
$and$benchmarks/c432.v:186$417_y                    1 	(obj:0)
$and$benchmarks/c432.v:186$417_z                  -19 	(obj:0)
$and$benchmarks/c432.v:117$296_y                   10 	(obj:0)
$and$benchmarks/c432.v:117$296_z                  -20 	(obj:0)
$and$benchmarks/c432.v:183$405_y                    2 	(obj:0)
$and$benchmarks/c432.v:183$405_z                  -16 	(obj:0)
$xor$benchmarks/c432.v:94$259_y                     8 	(obj:0)
$xor$benchmarks/c432.v:94$259_z                   -22 	(obj:0)
$not$benchmarks/c432.v:0$501_y                      5 	(obj:0)
$not$benchmarks/c432.v:0$501_z                    -19 	(obj:0)
$and$benchmarks/c432.v:129$320_y                    6 	(obj:0)
$and$benchmarks/c432.v:129$320_z                  -18 	(obj:0)
$and$benchmarks/c432.v:123$308_y                   11 	(obj:0)
$and$benchmarks/c432.v:123$308_z                  -20 	(obj:0)
$and$benchmarks/c432.v:202$459_z                  -20 	(obj:0)
$not$benchmarks/c432.v:0$454_y                      4 	(obj:0)
$not$benchmarks/c432.v:0$454_z                    -24 	(obj:0)
$not$benchmarks/c432.v:0$505_y                      2 	(obj:0)
$not$benchmarks/c432.v:0$505_z                    -15 	(obj:0)
$and$benchmarks/c432.v:192$442_z                  -18 	(obj:0)
$and$benchmarks/c432.v:192$438_y                    1 	(obj:0)
$and$benchmarks/c432.v:192$438_z                  -21 	(obj:0)
$and$benchmarks/c432.v:192$439_y                    1 	(obj:0)
$and$benchmarks/c432.v:192$439_z                  -22 	(obj:0)
$and$benchmarks/c432.v:118$298_y                    6 	(obj:0)
$and$benchmarks/c432.v:118$298_z                  -23 	(obj:0)
$and$benchmarks/c432.v:90$251_y                     9 	(obj:0)
$and$benchmarks/c432.v:90$251_z                   -20 	(obj:0)
$not$benchmarks/c432.v:0$503_y                      9 	(obj:0)
$not$benchmarks/c432.v:0$503_z                    -18 	(obj:0)
$and$benchmarks/c432.v:199$448_y                    3 	(obj:0)
$and$benchmarks/c432.v:199$448_z                  -20 	(obj:0)
$not$benchmarks/c432.v:0$458_y                      1 	(obj:0)
$not$benchmarks/c432.v:0$458_z                    -23 	(obj:0)
$and$benchmarks/c432.v:184$409_y                    1 	(obj:0)
$and$benchmarks/c432.v:184$409_z                  -25 	(obj:0)
$and$benchmarks/c432.v:192$441_y                    7 	(obj:0)
$and$benchmarks/c432.v:192$441_z                  -21 	(obj:0)
$and$benchmarks/c432.v:170$382_y                    6 	(obj:0)
$and$benchmarks/c432.v:170$382_z                  -15 	(obj:0)
$and$benchmarks/c432.v:90$253_y                     9 	(obj:0)
$and$benchmarks/c432.v:90$253_z                   -22 	(obj:0)
$and$benchmarks/c432.v:202$461_y                    3 	(obj:0)
$and$benchmarks/c432.v:202$461_z                  -24 	(obj:0)
$and$benchmarks/c432.v:90$255_y                    10 	(obj:0)
$and$benchmarks/c432.v:90$255_z                   -22 	(obj:0)
$and$benchmarks/c432.v:187$421_y                    1 	(obj:0)
$and$benchmarks/c432.v:187$421_z                  -14 	(obj:0)
$and$benchmarks/c432.v:116$294_y                    8 	(obj:0)
$and$benchmarks/c432.v:116$294_z                  -24 	(obj:0)
$and$benchmarks/c432.v:189$429_y                    3 	(obj:0)
$and$benchmarks/c432.v:189$429_z                  -16 	(obj:0)
$and$benchmarks/c432.v:120$302_y                   10 	(obj:0)
$and$benchmarks/c432.v:120$302_z                  -21 	(obj:0)
$and$benchmarks/c432.v:124$310_y                    8 	(obj:0)
$and$benchmarks/c432.v:124$310_z                  -25 	(obj:0)
x143                                                1 	(obj:1)
x146                                                2 	(obj:1)
x147                                                3 	(obj:1)
x149                                                1 	(obj:1)
x153                                                1 	(obj:1)
x155                                                3 	(obj:1)
x156                                                3 	(obj:1)
x157                                                2 	(obj:1)
x158                                                2 	(obj:1)
x160                                                3 	(obj:1)
x164                                                3 	(obj:1)
x165                                                1 	(obj:1)
x166                                                2 	(obj:1)
x167                                                1 	(obj:1)
x168                                                3 	(obj:1)
x171                                                1 	(obj:1)
x172                                                3 	(obj:1)
x173                                                3 	(obj:1)
x175                                                1 	(obj:1)
x185                                                2 	(obj:1)
x186                                                1 	(obj:1)
x187                                                1 	(obj:1)
x188                                                3 	(obj:1)
x189                                                3 	(obj:1)
x190                                                1 	(obj:1)
x192                                                3 	(obj:1)
x193                                                2 	(obj:1)
x195                                                3 	(obj:1)
x196                                                3 	(obj:1)
x200                                                3 	(obj:1)
x201                                                2 	(obj:1)
x205                                                1 	(obj:1)
x206                                                1 	(obj:1)
x210                                                1 	(obj:1)
x214                                                2 	(obj:1)
x216                                                3 	(obj:1)
x218                                                1 	(obj:1)
x225                                                3 	(obj:1)
x230                                                2 	(obj:1)
x233                                                2 	(obj:1)
x236                                                3 	(obj:1)
x238                                                2 	(obj:1)
x239                                                3 	(obj:1)
x240                                                3 	(obj:1)
x243                                                2 	(obj:1)
x246                                                2 	(obj:1)
x249                                                2 	(obj:1)
x251                                                3 	(obj:1)
x254                                                1 	(obj:1)
x259                                                3 	(obj:1)
x261                                                1 	(obj:1)
x263                                                3 	(obj:1)
x265                                                3 	(obj:1)
x270                                                3 	(obj:1)
x274                                                1 	(obj:1)
x276                                                1 	(obj:1)
x280                                                3 	(obj:1)
x285                                                1 	(obj:1)
x286                                                2 	(obj:1)
x289                                                3 	(obj:1)
x291                                                3 	(obj:1)
x293                                                3 	(obj:1)
x294                                                3 	(obj:1)
x295                                                3 	(obj:1)
x298                                                3 	(obj:1)
x300                                                1 	(obj:1)
x303                                                3 	(obj:1)
x305                                                3 	(obj:1)
x310                                                2 	(obj:1)
x317                                                2 	(obj:1)
x319                                                2 	(obj:1)
x321                                                2 	(obj:1)
x325                                                1 	(obj:1)
x326                                                2 	(obj:1)
x327                                                1 	(obj:1)
x329                                                1 	(obj:1)
x333                                                1 	(obj:1)
x334                                                2 	(obj:1)
x337                                                2 	(obj:1)
x338                                                1 	(obj:1)
x341                                                2 	(obj:1)
x342                                                2 	(obj:1)
x346                                                3 	(obj:1)
